0 0 0 0
0 1 0 0
0 2 1 0
0 3 0 0
0 4 0 4
0 5 0 5
0 6 0 5
0 7 1 8
0 8 0 11
0 9 0 9
0 10 0 7
0 11 0 11
0 12 0 15
0 13 2 12
0 14 0 17
0 15 0 19
0 16 0 21
0 17 0 5
0 18 0 23
0 19 0 11
0 20 0 9
0 21 0 19
0 22 2 20
0 23 0 12
0 24 2 13
0 25 2 15
0 26 0 23
0 27 0 22
0 28 0 33
0 29 0 30
0 30 0 33
0 31 0 38
